2
100 2
60
20 1 1
21 1 2
24 1 3
25 1 1
26 1 1
27 1 1
30 1 3
32 1 1
33 1 3
34 1 2
35 1 1
36 1 2
37 1 1
39 1 1
42 1 2
43 1 1
44 1 2
46 1 5
47 1 1
48 1 1
49 1 2
51 1 1
52 1 1
54 1 1
55 1 2
56 1 3
57 1 2
58 1 3
59 1 1
60 1 2
61 1 1
62 1 3
63 1 1
64 1 1
65 1 1
67 1 1
70 1 2
71 1 1
72 1 1
75 1 1
77 1 1
78 1 3
79 1 2
80 1 2
82 1 1
83 1 1
85 1 1
86 1 1
87 1 1
89 1 2
90 1 4
91 1 1
92 1 2
93 1 2
94 1 3
95 1 1
97 1 1
98 1 1
99 1 3
100 1 1
